% File represents an instance of a Composite Structure problem to be solved by a CP framework
% Created on 2025-03-26 10:41:21.057
T = 50;
n = 16;
m = 24;
edges = [(2, 1),
(5, 6),
(9, 10),
(13, 14),
(2, 3),
(6, 7),
(10, 11),
(15, 14),
(3, 4),
(7, 8),
(12, 11),
(16, 15),
(5, 1),
(5, 9),
(9, 13),
(2, 6),
(6, 10),
(10, 14),
(3, 7),
(7, 11),
(15, 11),
(4, 8),
(12, 8),
(16, 12)];
counts = [|12, 10, 12, 10,
|14, 10, 14, 10,
|12, 10, 12, 10,
|10, 10, 10, 8,
|12, 16, 12, 10,
|12, 10, 12, 10,
|12, 10, 12, 4,
|10, 10, 10, 2,
|12, 14, 12, 6,
|12, 10, 12, 4,
|12, 8, 12, 2,
|12, 12, 12, 2,
|12, 10, 12, 4,
|12, 10, 12, 2,
|12, 12, 12, 2,
|12, 12, 12, 4|];
